NAME: ETSP
COMMENT: Generated by write_TSPLIB (R package TSP)
TYPE: TSP
DIMENSION: 300
EDGE_WEIGHT_TYPE: EUC_2D
NODE_COORD_SECTION
1 0.000000e+00 0.000000e+00
2 1.000000e+01 0.000000e+00
3 2.000000e+01 0.000000e+00
4 4.000000e+01 0.000000e+00
5 5.000000e+01 0.000000e+00
6 6.000000e+01 0.000000e+00
7 7.000000e+01 0.000000e+00
8 8.000000e+01 0.000000e+00
9 9.000000e+01 0.000000e+00
10 1.000000e+02 0.000000e+00
11 1.100000e+02 0.000000e+00
12 1.200000e+02 0.000000e+00
13 1.300000e+02 0.000000e+00
14 1.700000e+02 0.000000e+00
15 1.000000e+01 1.000000e+01
16 3.000000e+01 1.000000e+01
17 4.000000e+01 1.000000e+01
18 6.000000e+01 1.000000e+01
19 8.000000e+01 1.000000e+01
20 9.000000e+01 1.000000e+01
21 1.300000e+02 1.000000e+01
22 1.400000e+02 1.000000e+01
23 1.600000e+02 1.000000e+01
24 1.700000e+02 1.000000e+01
25 0.000000e+00 2.000000e+01
26 1.000000e+01 2.000000e+01
27 2.000000e+01 2.000000e+01
28 3.000000e+01 2.000000e+01
29 5.000000e+01 2.000000e+01
30 6.000000e+01 2.000000e+01
31 7.000000e+01 2.000000e+01
32 8.000000e+01 2.000000e+01
33 1.000000e+02 2.000000e+01
34 1.100000e+02 2.000000e+01
35 1.200000e+02 2.000000e+01
36 1.500000e+02 2.000000e+01
37 1.600000e+02 2.000000e+01
38 0.000000e+00 3.000000e+01
39 1.000000e+01 3.000000e+01
40 2.000000e+01 3.000000e+01
41 3.000000e+01 3.000000e+01
42 4.000000e+01 3.000000e+01
43 5.000000e+01 3.000000e+01
44 6.000000e+01 3.000000e+01
45 7.000000e+01 3.000000e+01
46 8.000000e+01 3.000000e+01
47 9.000000e+01 3.000000e+01
48 1.000000e+02 3.000000e+01
49 1.200000e+02 3.000000e+01
50 1.300000e+02 3.000000e+01
51 1.500000e+02 3.000000e+01
52 0.000000e+00 4.000000e+01
53 1.000000e+01 4.000000e+01
54 2.000000e+01 4.000000e+01
55 3.000000e+01 4.000000e+01
56 4.000000e+01 4.000000e+01
57 6.000000e+01 4.000000e+01
58 1.100000e+02 4.000000e+01
59 1.200000e+02 4.000000e+01
60 1.300000e+02 4.000000e+01
61 1.500000e+02 4.000000e+01
62 1.600000e+02 4.000000e+01
63 1.700000e+02 4.000000e+01
64 1.000000e+01 5.000000e+01
65 2.000000e+01 5.000000e+01
66 3.000000e+01 5.000000e+01
67 4.000000e+01 5.000000e+01
68 5.000000e+01 5.000000e+01
69 6.000000e+01 5.000000e+01
70 7.000000e+01 5.000000e+01
71 8.000000e+01 5.000000e+01
72 1.000000e+02 5.000000e+01
73 1.100000e+02 5.000000e+01
74 1.200000e+02 5.000000e+01
75 1.300000e+02 5.000000e+01
76 1.400000e+02 5.000000e+01
77 1.500000e+02 5.000000e+01
78 1.600000e+02 5.000000e+01
79 1.000000e+01 6.000000e+01
80 2.000000e+01 6.000000e+01
81 4.000000e+01 6.000000e+01
82 6.000000e+01 6.000000e+01
83 8.000000e+01 6.000000e+01
84 9.000000e+01 6.000000e+01
85 1.100000e+02 6.000000e+01
86 1.200000e+02 6.000000e+01
87 1.300000e+02 6.000000e+01
88 1.500000e+02 6.000000e+01
89 1.600000e+02 6.000000e+01
90 1.700000e+02 6.000000e+01
91 1.000000e+01 7.000000e+01
92 2.000000e+01 7.000000e+01
93 3.000000e+01 7.000000e+01
94 4.000000e+01 7.000000e+01
95 6.000000e+01 7.000000e+01
96 7.000000e+01 7.000000e+01
97 8.000000e+01 7.000000e+01
98 9.000000e+01 7.000000e+01
99 1.000000e+02 7.000000e+01
100 1.100000e+02 7.000000e+01
101 1.300000e+02 7.000000e+01
102 1.400000e+02 7.000000e+01
103 1.500000e+02 7.000000e+01
104 1.600000e+02 7.000000e+01
105 1.700000e+02 7.000000e+01
106 0.000000e+00 8.000000e+01
107 1.000000e+01 8.000000e+01
108 2.000000e+01 8.000000e+01
109 5.000000e+01 8.000000e+01
110 6.000000e+01 8.000000e+01
111 7.000000e+01 8.000000e+01
112 8.000000e+01 8.000000e+01
113 9.000000e+01 8.000000e+01
114 1.000000e+02 8.000000e+01
115 1.100000e+02 8.000000e+01
116 1.200000e+02 8.000000e+01
117 1.300000e+02 8.000000e+01
118 1.400000e+02 8.000000e+01
119 1.500000e+02 8.000000e+01
120 1.600000e+02 8.000000e+01
121 0.000000e+00 9.000000e+01
122 1.000000e+01 9.000000e+01
123 2.000000e+01 9.000000e+01
124 3.000000e+01 9.000000e+01
125 4.000000e+01 9.000000e+01
126 6.000000e+01 9.000000e+01
127 7.000000e+01 9.000000e+01
128 8.000000e+01 9.000000e+01
129 1.000000e+02 9.000000e+01
130 1.100000e+02 9.000000e+01
131 1.200000e+02 9.000000e+01
132 1.300000e+02 9.000000e+01
133 1.400000e+02 9.000000e+01
134 1.500000e+02 9.000000e+01
135 1.700000e+02 9.000000e+01
136 0.000000e+00 1.000000e+02
137 1.000000e+01 1.000000e+02
138 3.000000e+01 1.000000e+02
139 4.000000e+01 1.000000e+02
140 5.000000e+01 1.000000e+02
141 7.000000e+01 1.000000e+02
142 8.000000e+01 1.000000e+02
143 9.000000e+01 1.000000e+02
144 1.000000e+02 1.000000e+02
145 1.200000e+02 1.000000e+02
146 1.300000e+02 1.000000e+02
147 1.400000e+02 1.000000e+02
148 1.500000e+02 1.000000e+02
149 1.700000e+02 1.000000e+02
150 0.000000e+00 1.100000e+02
151 1.000000e+01 1.100000e+02
152 2.000000e+01 1.100000e+02
153 5.000000e+01 1.100000e+02
154 6.000000e+01 1.100000e+02
155 8.000000e+01 1.100000e+02
156 9.000000e+01 1.100000e+02
157 1.000000e+02 1.100000e+02
158 1.100000e+02 1.100000e+02
159 1.300000e+02 1.100000e+02
160 1.400000e+02 1.100000e+02
161 1.500000e+02 1.100000e+02
162 1.600000e+02 1.100000e+02
163 1.700000e+02 1.100000e+02
164 1.000000e+01 1.200000e+02
165 2.000000e+01 1.200000e+02
166 3.000000e+01 1.200000e+02
167 4.000000e+01 1.200000e+02
168 5.000000e+01 1.200000e+02
169 7.000000e+01 1.200000e+02
170 9.000000e+01 1.200000e+02
171 1.000000e+02 1.200000e+02
172 1.100000e+02 1.200000e+02
173 1.200000e+02 1.200000e+02
174 1.300000e+02 1.200000e+02
175 1.400000e+02 1.200000e+02
176 1.500000e+02 1.200000e+02
177 1.600000e+02 1.200000e+02
178 0.000000e+00 1.300000e+02
179 1.000000e+01 1.300000e+02
180 4.000000e+01 1.300000e+02
181 5.000000e+01 1.300000e+02
182 6.000000e+01 1.300000e+02
183 7.000000e+01 1.300000e+02
184 9.000000e+01 1.300000e+02
185 1.000000e+02 1.300000e+02
186 1.200000e+02 1.300000e+02
187 1.300000e+02 1.300000e+02
188 1.400000e+02 1.300000e+02
189 1.600000e+02 1.300000e+02
190 1.700000e+02 1.300000e+02
191 1.000000e+01 1.400000e+02
192 3.000000e+01 1.400000e+02
193 4.000000e+01 1.400000e+02
194 7.000000e+01 1.400000e+02
195 8.000000e+01 1.400000e+02
196 1.000000e+02 1.400000e+02
197 1.500000e+02 1.400000e+02
198 1.600000e+02 1.400000e+02
199 0.000000e+00 1.500000e+02
200 2.000000e+01 1.500000e+02
201 3.000000e+01 1.500000e+02
202 4.000000e+01 1.500000e+02
203 5.000000e+01 1.500000e+02
204 6.000000e+01 1.500000e+02
205 7.000000e+01 1.500000e+02
206 8.000000e+01 1.500000e+02
207 1.000000e+02 1.500000e+02
208 1.100000e+02 1.500000e+02
209 1.300000e+02 1.500000e+02
210 1.400000e+02 1.500000e+02
211 1.500000e+02 1.500000e+02
212 1.600000e+02 1.500000e+02
213 1.700000e+02 1.500000e+02
214 0.000000e+00 1.600000e+02
215 1.000000e+01 1.600000e+02
216 2.000000e+01 1.600000e+02
217 3.000000e+01 1.600000e+02
218 4.000000e+01 1.600000e+02
219 5.000000e+01 1.600000e+02
220 7.000000e+01 1.600000e+02
221 8.000000e+01 1.600000e+02
222 1.000000e+02 1.600000e+02
223 1.100000e+02 1.600000e+02
224 1.200000e+02 1.600000e+02
225 1.300000e+02 1.600000e+02
226 1.600000e+02 1.600000e+02
227 1.700000e+02 1.600000e+02
228 0.000000e+00 1.700000e+02
229 2.000000e+01 1.700000e+02
230 5.000000e+01 1.700000e+02
231 7.000000e+01 1.700000e+02
232 8.000000e+01 1.700000e+02
233 9.000000e+01 1.700000e+02
234 1.000000e+02 1.700000e+02
235 1.100000e+02 1.700000e+02
236 1.300000e+02 1.700000e+02
237 1.400000e+02 1.700000e+02
238 1.500000e+02 1.700000e+02
239 1.600000e+02 1.700000e+02
240 1.700000e+02 1.700000e+02
241 0.000000e+00 1.800000e+02
242 1.000000e+01 1.800000e+02
243 3.000000e+01 1.800000e+02
244 4.000000e+01 1.800000e+02
245 6.000000e+01 1.800000e+02
246 7.000000e+01 1.800000e+02
247 8.000000e+01 1.800000e+02
248 9.000000e+01 1.800000e+02
249 1.000000e+02 1.800000e+02
250 1.200000e+02 1.800000e+02
251 1.500000e+02 1.800000e+02
252 1.600000e+02 1.800000e+02
253 1.700000e+02 1.800000e+02
254 0.000000e+00 1.900000e+02
255 5.000000e+01 1.900000e+02
256 7.000000e+01 1.900000e+02
257 8.000000e+01 1.900000e+02
258 9.000000e+01 1.900000e+02
259 1.000000e+02 1.900000e+02
260 1.200000e+02 1.900000e+02
261 1.300000e+02 1.900000e+02
262 1.400000e+02 1.900000e+02
263 1.500000e+02 1.900000e+02
264 1.700000e+02 1.900000e+02
265 1.000000e+01 2.000000e+02
266 2.000000e+01 2.000000e+02
267 3.000000e+01 2.000000e+02
268 4.000000e+01 2.000000e+02
269 5.000000e+01 2.000000e+02
270 6.000000e+01 2.000000e+02
271 8.000000e+01 2.000000e+02
272 1.000000e+02 2.000000e+02
273 1.200000e+02 2.000000e+02
274 1.300000e+02 2.000000e+02
275 1.400000e+02 2.000000e+02
276 1.500000e+02 2.000000e+02
277 1.600000e+02 2.000000e+02
278 0.000000e+00 2.100000e+02
279 1.000000e+01 2.100000e+02
280 3.000000e+01 2.100000e+02
281 6.000000e+01 2.100000e+02
282 7.000000e+01 2.100000e+02
283 9.000000e+01 2.100000e+02
284 1.200000e+02 2.100000e+02
285 1.300000e+02 2.100000e+02
286 1.500000e+02 2.100000e+02
287 1.700000e+02 2.100000e+02
288 0.000000e+00 2.200000e+02
289 1.000000e+01 2.200000e+02
290 2.000000e+01 2.200000e+02
291 3.000000e+01 2.200000e+02
292 4.000000e+01 2.200000e+02
293 5.000000e+01 2.200000e+02
294 7.000000e+01 2.200000e+02
295 8.000000e+01 2.200000e+02
296 9.000000e+01 2.200000e+02
297 1.000000e+02 2.200000e+02
298 1.200000e+02 2.200000e+02
299 1.400000e+02 2.200000e+02
300 1.700000e+02 2.200000e+02
EOF
